2422700
34,67,7,8,14,1,57,26,44,16,62,19,64,12,46,23,60,3,47,58,27,15,0,11,55,41,53,18,22,48,4,59,5,63,10,65,66,40,29,24,28,39,31,2,20,35,38,52,13,32,9,17,56,43,51,21,42,45,33,25,54,6,37,30,49,36,61,50
